
Gurobi 11.0.3 (linux64) logging started Thu Nov 21 23:06:43 2024

Set parameter LogFile to value "/home/yihong/Coding/OR_SUC/SUC_results_bigM100000_thread4/case24_ieee_rts_theta0.5_epsilon0.05_gurobi_seed960000_num_gen100_N_WDR100_load_scaling_factor1_exact_T8quadra_cost.txt"
Set parameter TimeLimit to value 3600
Gurobi Optimizer version 11.0.3 build v11.0.3rc0 (linux64 - "Ubuntu 20.04.6 LTS")

CPU model: AMD EPYC 7532 32-Core Processor, instruction set [SSE2|AVX|AVX2]
Thread count: 64 physical cores, 128 logical processors, using up to 4 threads

Optimize a model with 18955 rows, 10121 columns and 440954 nonzeros
Model fingerprint: 0xcb983a13
Model has 800 quadratic constraints
Variable types: 9221 continuous, 900 integer (900 binary)
Coefficient statistics:
  Matrix range     [3e-04, 1e+05]
  QMatrix range    [2e-03, 8e-03]
  QLMatrix range   [7e-02, 6e+01]
  Objective range  [1e+00, 1e+00]
  Bounds range     [1e+00, 1e+00]
  RHS range        [1e+00, 1e+05]
Presolve removed 15582 rows and 4417 columns
Presolve time: 0.13s
Presolved: 3373 rows, 5704 columns, 19340 nonzeros
Presolved model has 800 quadratic constraint(s)
Variable types: 4842 continuous, 862 integer (862 binary)

Root relaxation: objective 1.416154e+04, 2762 iterations, 0.05 seconds (0.06 work units)

    Nodes    |    Current Node    |     Objective Bounds      |     Work
 Expl Unexpl |  Obj  Depth IntInf | Incumbent    BestBd   Gap | It/Node Time

     0     0 14161.5407    0   19          - 14161.5407      -     -    0s
     0     0 97116.5933    0  267          - 97116.5933      -     -    0s
     0     0 97251.5251    0  253          - 97251.5251      -     -    0s
     0     0 198760.748    0  164          - 198760.748      -     -    0s
     0     0 198766.054    0  163          - 198766.054      -     -    0s
     0     0 198860.346    0  114          - 198860.346      -     -    0s
     0     0 198860.727    0  114          - 198860.727      -     -    0s
     0     0 198860.853    0  114          - 198860.853      -     -    0s
     0     2 198860.853    0  114          - 198860.853      -     -    0s
H  287   255                    199249.06586 198862.069  0.19%  16.9    1s
*  287   255              61    199249.06586 198862.069  0.19%  16.9    1s
H  577   253                    199138.68696 198895.743  0.12%  35.6    3s
*  577   253              41    199138.68696 198895.743  0.12%  35.6    3s
H  608   254                    199130.77206 198897.182  0.12%  36.5    4s
*  608   254              31    199130.77206 198897.247  0.12%  36.8    4s
H  615   242                    199092.40378 198897.685  0.10%  36.9    4s
*  615   242              35    199092.40378 198897.685  0.10%  37.1    4s

Cutting planes:
  Gomory: 5
  Implied bound: 23
  MIR: 26
  Flow cover: 25

Explored 626 nodes (31012 simplex iterations) in 4.29 seconds (4.15 work units)
Thread count was 4 (of 128 available processors)

Solution count 5: 199092 199092 199131 ... 199249

Optimal solution found (tolerance 1.00e-03)
Warning: max constraint violation (1.5773e-06) exceeds tolerance
Best objective 1.990924037825e+05, best bound 1.988976848938e+05, gap 0.0978%
